p tw 40 228
e 0 1
e 0 4
e 0 9
e 0 10
e 0 14
e 0 17
e 0 20
e 0 21
e 0 25
e 0 27
e 0 28
e 0 31
e 0 32
e 0 33
e 0 35
e 0 36
e 1 2
e 1 5
e 1 19
e 1 20
e 1 23
e 1 34
e 1 35
e 2 3
e 2 9
e 2 14
e 2 17
e 2 26
e 2 29
e 2 38
e 2 39
e 3 4
e 3 10
e 3 13
e 3 14
e 3 15
e 3 17
e 3 18
e 3 21
e 3 22
e 3 24
e 3 25
e 3 30
e 3 33
e 3 34
e 3 37
e 4 5
e 4 6
e 4 7
e 4 9
e 4 13
e 4 17
e 4 23
e 4 24
e 4 33
e 4 34
e 4 36
e 5 6
e 5 13
e 5 16
e 5 17
e 5 19
e 5 24
e 5 25
e 5 30
e 5 39
e 6 8
e 6 9
e 6 11
e 6 17
e 6 22
e 6 24
e 6 25
e 6 26
e 6 35
e 6 36
e 6 37
e 7 10
e 7 13
e 7 15
e 7 16
e 7 18
e 7 19
e 7 22
e 7 23
e 7 24
e 7 26
e 7 31
e 7 32
e 7 34
e 7 36
e 7 37
e 7 39
e 8 12
e 8 16
e 8 17
e 8 23
e 8 26
e 8 27
e 8 28
e 9 15
e 9 16
e 9 17
e 9 18
e 9 20
e 9 21
e 9 23
e 9 27
e 9 30
e 9 32
e 9 37
e 10 11
e 10 13
e 10 15
e 10 23
e 10 25
e 10 28
e 10 29
e 10 38
e 10 39
e 11 15
e 11 17
e 11 18
e 11 19
e 11 24
e 11 25
e 11 32
e 11 35
e 12 13
e 12 15
e 12 16
e 12 19
e 12 33
e 12 34
e 12 35
e 12 38
e 13 17
e 13 19
e 13 23
e 13 26
e 13 37
e 13 39
e 14 17
e 14 20
e 14 21
e 14 22
e 14 24
e 14 25
e 14 27
e 14 31
e 14 32
e 14 34
e 14 36
e 15 23
e 15 24
e 15 26
e 15 32
e 15 39
e 16 26
e 16 27
e 16 28
e 17 18
e 17 22
e 18 25
e 18 29
e 18 33
e 18 39
e 19 26
e 19 27
e 19 29
e 19 30
e 19 36
e 20 21
e 20 23
e 20 25
e 20 29
e 20 33
e 21 22
e 21 24
e 21 30
e 21 32
e 21 33
e 21 37
e 22 24
e 22 27
e 22 28
e 22 29
e 22 32
e 22 33
e 23 24
e 23 26
e 23 30
e 23 31
e 23 35
e 24 26
e 24 36
e 24 38
e 24 39
e 25 27
e 25 29
e 25 33
e 25 34
e 25 36
e 25 37
e 25 38
e 25 39
e 26 27
e 26 37
e 26 38
e 27 33
e 27 36
e 28 33
e 28 35
e 28 39
e 29 30
e 29 35
e 29 38
e 30 33
e 30 35
e 30 37
e 30 38
e 31 34
e 32 33
e 33 34
e 34 39
e 35 36
e 35 39
e 36 39
